c description: Random 3-CNF over 22 variables and 94 clauses
c generator: CNFgen (0.9.2)
c copyright: (C) 2012-2022 Massimo Lauria <massimo.lauria@uniroma1.it>
c url: https://massimolauria.net/cnfgen
c command line: cnfgen --output CNF_4.28/22_bit_94_897.cnf randkcnf 3 22 94
c
p cnf 22 94
12 18 -21 0
-6 -15 22 0
3 -12 -19 0
3 -5 15 0
8 -10 -19 0
6 7 -15 0
-2 9 -22 0
6 -7 -17 0
1 5 9 0
-4 -10 -19 0
4 -13 -17 0
6 -16 20 0
2 -9 -18 0
-1 -2 -20 0
-7 -17 -18 0
3 6 -13 0
-16 18 -20 0
-5 -13 15 0
7 -20 22 0
-12 -19 -20 0
14 15 20 0
-4 11 16 0
-1 16 22 0
3 19 -22 0
-1 -8 15 0
4 15 17 0
3 9 -15 0
3 -4 -22 0
5 6 -7 0
-1 6 -9 0
-4 -18 -19 0
-10 -16 21 0
-2 6 -19 0
-6 9 15 0
-9 -18 22 0
-6 -14 -15 0
-1 -11 21 0
9 -10 21 0
-11 13 -20 0
3 -13 16 0
-2 -5 12 0
10 13 -15 0
6 -20 -22 0
7 8 -13 0
7 8 -11 0
-7 13 -16 0
6 8 -18 0
-1 -8 20 0
-2 8 10 0
2 6 -19 0
3 -21 22 0
5 8 -14 0
-10 13 -22 0
-5 -19 22 0
6 8 -11 0
8 9 -18 0
-3 -13 -19 0
4 -13 -20 0
2 -12 13 0
-14 21 -22 0
8 11 -22 0
3 10 22 0
-14 -16 -17 0
-4 9 -18 0
-2 -10 -12 0
3 -12 22 0
2 -9 -14 0
3 8 9 0
2 -8 -17 0
2 -3 -10 0
-5 -19 20 0
-1 -11 -21 0
-8 -9 -11 0
-5 7 21 0
-6 -7 -13 0
1 10 -19 0
-6 8 17 0
-6 18 -19 0
1 -4 12 0
-14 18 -19 0
4 -14 20 0
3 -18 -19 0
-1 4 5 0
4 -14 18 0
-9 10 21 0
-4 -17 18 0
5 -7 15 0
-5 -12 16 0
10 -12 22 0
-12 14 -15 0
-12 -15 -17 0
11 14 17 0
-3 -19 22 0
-12 -13 15 0
